98 100
48 97 1
18 71 1
46 9 1
49 94 1
22 82 1
33 67 1
25 96 1
19 94 1
7 15 1
8 71 1
66 90 1
1 68 1
4 78 1
46 84 1
20 99 1
44 84 1
13 87 1
45 69 1
34 78 1
49 74 2
89 7 1
6 98 1
60 99 1
16 72 1
16 96 1
85 49 1
49 95 1
94 67 1
10 96 1
13 75 1
48 98 1
34 38 1
15 68 1
71 40 1
10 75 2
36 79 1
32 84 1
16 84 1
33 94 1
11 10 1
90 27 1
17 87 1
25 78 1
1 69 1
16 92 1
13 88 1
11 90 1
4 74 1
71 11 1
21 97 1
17 88 1
13 97 1
41 80 1
20 68 1
43 74 1
29 94 1
22 70 1
41 69 1
30 5 1
7 99 1
15 69 1
25 79 1
29 71 1
46 78 1
20 76 1
79 45 1
39 82 1
47 99 1
36 91 1
27 87 1
73 2 1
9 94 1
14 79 1
45 86 1
45 94 1
83 96 1
4 15 1
25 93 1
90 91 1
79 12 1
69 21 1
17 74 1
48 68 1
17 40 1
78 39 1
70 95 1
77 28 1
26 86 1
43 19 1
35 94 1
47 74 1
47 86 1
29 72 1
12 98 1
93 10 1
79 93 1
27 75 1
50 76 1
100 100 
100 100 
100 100 
100 100 
100 100 
100 100 
100 100 
100 100 
100 100 
100 100 
100 100 
100 100 
100 100 
100 100 
100 100 
100 100 
100 100 
100 100 
100 100 
100 100 
100 100 
100 100 
100 100 
100 100 
100 100 
100 100 
100 100 
100 100 
100 100 
100 100 
100 100 
100 100 
100 100 
100 100 
100 100 
100 100 
100 100 
100 100 
100 100 
100 100 
100 100 
100 100 
100 100 
100 100 
100 100 
100 100 
100 100 
100 100 
100 100 
100 100 
100 100 
100 100 
100 100 
100 100 
100 100 
100 100 
100 100 
100 100 
100 100 
100 100 
100 100 
100 100 
100 100 
100 100 
100 100 
100 100 
100 100 
100 100 
100 100 
100 100 
100 100 
100 100 
100 100 
100 100 
100 100 
100 100 
100 100 
100 100 
100 100 
100 100 
100 100 
100 100 
100 100 
100 100 
100 100 
100 100 
100 100 
100 100 
100 100 
100 100 
100 100 
100 100 
100 100 
100 100 
100 100 
100 100 
100 100 
100 100 
100 100 
100 100 
